(set-info :smt-lib-version 2.6)
(set-logic QF_S)
(set-info :source |
Generated by: Hung-En Wang, Tzung-Lin Tsai, Chun-Han Lin, Fang Yu, and Jie-Hong R. Jiang
Generated on: 2019-02-28
Generator: Stranger
Application: Security analysis of string manipulating web applications
Target solver: CVC4, Norn, Z3-str2
Publication:
Hung-En Wang, Tzung-Lin Tsai, Chun-Han Lin, Fang Yu, Jie-Hong R. Jiang:
String Analysis via Automata Manipulation with Logic Circuit Representation. CAV (1) 2016: 241-260.
|)
(set-info :license "https://creativecommons.org/licenses/by/4.0/")
(set-info :category "industrial")
(set-info :status unknown)

(declare-fun sigmaStar_0 () String)
(declare-fun sigmaStar_1 () String)
(declare-fun sigmaStar_2 () String)
(declare-fun literal_11 () String)
(declare-fun x_14 () String)
(declare-fun literal_8 () String)
(declare-fun literal_10 () String)
(declare-fun x_19 () String)
(declare-fun literal_22 () String)
(declare-fun x_24 () String)
(declare-fun literal_21 () String)
(declare-fun x_20 () String)
(declare-fun epsilon () String)
(declare-fun literal_12 () String)
(declare-fun literal_13 () String)
(declare-fun x_25 () String)
(declare-fun x_23 () String)
(declare-fun x_27 () String)
(declare-fun literal_26 () String)
(declare-fun x_28 () String)
(declare-fun literal_29 () String)
(declare-fun x_31 () String)
(declare-fun x_32 () String)
(declare-fun literal_30 () String)
(declare-fun x_33 () String)
(declare-fun literal_34 () String)
(declare-fun x_35 () String)
(declare-fun literal_45 () String)
(assert (= literal_11 "\u{53}\u{45}\u{4c}\u{45}\u{43}\u{54}\u{20}\u{4d}\u{41}\u{58}\u{28}\u{61}\u{2e}\u{74}\u{69}\u{6d}\u{65}\u{29}\u{20}\u{61}\u{73}\u{20}\u{74}\u{69}\u{6d}\u{65}\u{2c}\u{20}\u{0d}\u{0a}\u{20}\u{20}\u{20}\u{20}\u{20}\u{20}\u{20}\u{20}\u{20}\u{20}\u{20}\u{20}\u{20}\u{20}\u{20}\u{20}\u{20}\u{20}\u{20}\u{20}\u{20}\u{20}\u{20}\u{20}\u{20}\u{20}\u{20}\u{20}\u{20}\u{20}\u{20}\u{20}\u{20}\u{20}\u{20}\u{75}\u{2e}\u{69}\u{64}\u{2c}\u{20}\u{75}\u{2e}\u{66}\u{69}\u{72}\u{73}\u{74}\u{6e}\u{61}\u{6d}\u{65}\u{2c}\u{20}\u{75}\u{2e}\u{6c}\u{61}\u{73}\u{74}\u{6e}\u{61}\u{6d}\u{65}\u{2c}\u{20}\u{75}\u{2e}\u{70}\u{69}\u{63}\u{74}\u{75}\u{72}\u{65}\u{0d}\u{0a}\u{20}\u{20}\u{20}\u{20}\u{20}\u{20}\u{20}\u{20}\u{20}\u{20}\u{20}\u{20}\u{20}\u{20}\u{20}\u{20}\u{20}\u{20}\u{20}\u{20}\u{20}\u{20}\u{20}\u{20}\u{20}\u{20}\u{20}\u{20}\u{20}\u{20}\u{46}\u{52}\u{4f}\u{4d}\u{20}\u{73}\u{75}\u{72}\u{76}\u{65}\u{79}\u{5f}\u{61}\u{6e}\u{73}\u{77}\u{65}\u{72}\u{73}\u{20}\u{41}\u{53}\u{20}\u{61}\u{2c}\u{20}\u{0d}\u{0a}\u{20}\u{20}\u{20}\u{20}\u{20}\u{20}\u{20}\u{20}\u{20}\u{20}\u{20}\u{20}\u{20}\u{20}\u{20}\u{20}\u{20}\u{20}\u{20}\u{20}\u{20}\u{20}\u{20}\u{20}\u{20}\u{20}\u{20}\u{20}\u{20}\u{20}\u{20}\u{20}\u{20}\u{20}\u{20}\u{75}\u{73}\u{65}\u{72}\u{20}\u{41}\u{53}\u{20}\u{75}\u{20}\u{20}\u{20}"))
(assert (= literal_8 "\u{2c}\u{20}\u{67}\u{72}\u{6f}\u{75}\u{70}\u{73}\u{5f}\u{6d}\u{65}\u{6d}\u{62}\u{65}\u{72}\u{73}\u{20}\u{41}\u{53}\u{20}\u{67}\u{6d}"))
(assert (= literal_10 ""))
(assert (or (= x_14 literal_8) (= x_14 literal_10)))
(assert (= x_19 (str.++ literal_11 x_14)))
(assert (= literal_22 "\u{0d}\u{0a}\u{20}\u{20}\u{20}\u{20}\u{20}\u{20}\u{20}\u{20}\u{20}\u{20}\u{20}\u{20}\u{20}\u{20}\u{20}\u{20}\u{20}\u{20}\u{20}\u{20}\u{20}\u{20}\u{20}\u{20}\u{20}\u{20}\u{20}\u{20}\u{20}\u{57}\u{48}\u{45}\u{52}\u{45}\u{20}\u{61}\u{2e}\u{73}\u{75}\u{72}\u{76}\u{65}\u{79}\u{20}\u{3d}\u{20}"))
(assert (= x_24 (str.++ x_19 literal_22)))
(assert (= literal_21 "\u{41}\u{4e}\u{44}\u{20}\u{67}\u{6d}\u{2e}\u{67}\u{72}\u{6f}\u{75}\u{70}\u{69}\u{64}\u{20}\u{3d}\u{20}"))
(assert (= epsilon ""))
(assert (= literal_12 "\u{30}"))
(assert (= literal_13 "\u{30}"))
(assert (or (= x_20 epsilon) (= x_20 literal_12) (= x_20 literal_13)))
(assert (= x_25 (str.++ literal_21 x_20)))
(assert (= x_23 epsilon))
(assert (= x_27 (str.++ x_24 x_23)))
(assert (= literal_26 "\u{20}\u{41}\u{4e}\u{44}\u{20}\u{75}\u{2e}\u{69}\u{64}\u{20}\u{3d}\u{20}\u{67}\u{6d}\u{2e}\u{75}\u{73}\u{65}\u{72}\u{69}\u{64}"))
(assert (= x_28 (str.++ x_25 literal_26)))
(assert (= literal_29 "\u{20}\u{0d}\u{0a}\u{20}\u{20}\u{20}\u{20}\u{20}\u{20}\u{20}\u{20}\u{20}\u{20}\u{20}\u{20}\u{20}\u{20}\u{20}\u{20}\u{20}\u{20}\u{20}\u{20}\u{20}\u{20}\u{20}\u{20}\u{20}\u{20}\u{20}\u{20}\u{20}\u{20}\u{20}\u{20}\u{20}\u{20}\u{20}\u{41}\u{4e}\u{44}\u{20}\u{61}\u{2e}\u{75}\u{73}\u{65}\u{72}\u{69}\u{64}\u{20}\u{3d}\u{20}\u{75}\u{2e}\u{69}\u{64}\u{20}"))
(assert (= x_31 (str.++ x_27 literal_29)))
(assert (= literal_30 ""))
(assert (or (= x_32 literal_30) (= x_32 x_28)))
(assert (= x_33 (str.++ x_31 x_32)))
(assert (= literal_34 "\u{0d}\u{0a}\u{20}\u{20}\u{20}\u{20}\u{20}\u{20}\u{20}\u{20}\u{20}\u{20}\u{20}\u{20}\u{20}\u{20}\u{20}\u{20}\u{20}\u{20}\u{20}\u{20}\u{20}\u{20}\u{20}\u{20}\u{20}\u{20}\u{47}\u{52}\u{4f}\u{55}\u{50}\u{20}\u{42}\u{59}\u{20}\u{75}\u{2e}\u{69}\u{64}\u{2c}\u{20}\u{75}\u{2e}\u{66}\u{69}\u{72}\u{73}\u{74}\u{6e}\u{61}\u{6d}\u{65}\u{2c}\u{20}\u{75}\u{2e}\u{6c}\u{61}\u{73}\u{74}\u{6e}\u{61}\u{6d}\u{65}\u{2c}\u{20}\u{75}\u{2e}\u{70}\u{69}\u{63}\u{74}\u{75}\u{72}\u{65}\u{0d}\u{0a}\u{20}\u{20}\u{20}\u{20}\u{20}\u{20}\u{20}\u{20}\u{20}\u{20}\u{20}\u{20}\u{20}\u{20}\u{20}\u{20}\u{20}\u{20}\u{20}\u{20}\u{20}\u{20}\u{20}\u{20}\u{20}\u{20}\u{4f}\u{52}\u{44}\u{45}\u{52}\u{20}\u{42}\u{59}\u{20}\u{74}\u{69}\u{6d}\u{65}\u{20}\u{41}\u{53}\u{43}"))
(assert (= x_35 (str.++ x_33 literal_34)))
(assert (= literal_45 "\u{3c}\u{64}\u{69}\u{76}\u{20}\u{63}\u{6c}\u{61}\u{73}\u{73}\u{3d}\u{5c}\u{22}\u{72}\u{65}\u{70}\u{6f}\u{72}\u{74}\u{6c}\u{69}\u{6e}\u{6b}\u{5c}\u{22}\u{3e}\u{3c}\u{61}\u{20}\u{68}\u{72}\u{65}\u{66}\u{3d}\u{5c}\u{22}\u{72}\u{65}\u{70}\u{6f}\u{72}\u{74}\u{2e}\u{70}\u{68}\u{70}\u{3f}\u{69}\u{64}\u{3d}\u{5c}\u{22}\u{3e}\u{76}\u{69}\u{65}\u{77}\u{73}\u{75}\u{72}\u{76}\u{65}\u{79}\u{72}\u{65}\u{73}\u{70}\u{6f}\u{6e}\u{73}\u{65}\u{73}\u{3c}\u{2f}\u{61}\u{3e}\u{3c}\u{2f}\u{64}\u{69}\u{76}\u{3e}"))
(assert (str.in_re literal_45 (re.++ (re.* re.allchar) (re.++ (str.to_re "\u{5c}\u{3c}\u{53}\u{43}\u{52}\u{49}\u{50}\u{54}") (re.* re.allchar)))))
(check-sat)
(exit)
